Set parameter Username
Set parameter LogFile to value "gurobi.log"
Academic license - for non-commercial use only - expires 2024-05-02
Using license file /Users/sissi/gurobi.lic

Gurobi Optimizer version 10.0.1 build v10.0.1rc0 (mac64[arm])
Copyright (c) 2023, Gurobi Optimization, LLC

Read OPB format model from file pbo/p_pbo_0_3680.opb
Reading time = 0.01 seconds
(null): 2005 rows, 1057 columns, 5973 nonzeros

CPU model: Apple M2
Thread count: 8 physical cores, 8 logical processors, using up to 8 threads

Optimize a model with 2005 rows, 1057 columns and 5973 nonzeros
Model fingerprint: 0xe0ae04fa
Variable types: 0 continuous, 1057 integer (1057 binary)
Coefficient statistics:
  Matrix range     [1e+00, 1e+00]
  Objective range  [1e+00, 4e+00]
  Bounds range     [1e+00, 1e+00]
  RHS range        [1e+00, 1e+00]
Found heuristic solution: objective -360.0000000
Presolve removed 1001 rows and 511 columns
Presolve time: 0.00s
Presolved: 1004 rows, 546 columns, 3012 nonzeros
Variable types: 0 continuous, 546 integer (546 binary)

Root relaxation: objective -6.150000e+02, 127 iterations, 0.00 seconds (0.00 work units)

    Nodes    |    Current Node    |     Objective Bounds      |     Work
 Expl Unexpl |  Obj  Depth IntInf | Incumbent    BestBd   Gap | It/Node Time

     0     0 -615.00000    0   44 -360.00000 -615.00000  70.8%     -    0s
H    0     0                    -364.0000000 -589.00000  61.8%     -    0s
     0     0 -425.27121    0  537 -364.00000 -425.27121  16.8%     -    0s
     0     0 -423.89428    0  540 -364.00000 -423.89428  16.5%     -    0s
     0     0 -423.42213    0  535 -364.00000 -423.42213  16.3%     -    0s
     0     0 -423.19760    0  541 -364.00000 -423.19760  16.3%     -    0s
     0     0 -423.11096    0  538 -364.00000 -423.11096  16.2%     -    0s
     0     0 -404.19475    0  543 -364.00000 -404.19475  11.0%     -    1s
     0     0 -402.62804    0  539 -364.00000 -402.62804  10.6%     -    1s
     0     0 -401.75686    0  542 -364.00000 -401.75686  10.4%     -    1s
     0     0 -401.51833    0  541 -364.00000 -401.51833  10.3%     -    1s
     0     0 -401.37507    0  542 -364.00000 -401.37507  10.3%     -    1s
H    0     0                    -395.0000000 -401.37507  1.61%     -    1s
     0     0 -397.22627    0  543 -395.00000 -397.22627  0.56%     -    1s
     0     0 -396.34231    0  541 -395.00000 -396.34231  0.34%     -    1s
     0     0     cutoff    0      -395.00000 -395.00000  0.00%     -    1s

Cutting planes:
  MIR: 100
  RLT: 231

Explored 1 nodes (7413 simplex iterations) in 1.50 seconds (1.21 work units)
Thread count was 8 (of 8 available processors)

Solution count 3: -395 -364 -360 
No other solutions better than -395

Optimal solution found (tolerance 1.00e-04)
Best objective -3.950000000000e+02, best bound -3.950000000000e+02, gap 0.0000%

Wrote result file 'solution/p_0_3680.sol'

